s td 24 33 56
b 1 1 3 6 8 10 11 13 14 15 16 17 19 20 21 22 23 24 25 27 28 29 30 32 33 35 36 41 43 46 48 49 54 56
b 2 3 6 10 11 13 14 16 17 19 21 23 24 25 27 28 29 31 32 35 36 41 43 46 49 54 56
b 3 3 6 10 11 13 14 17 21 23 24 25 29 31 32 46 47 49 54 56
b 4 2 13 14 17 21 23 29 46 47 49 54
b 5 1 3 6 8 10 11 13 14 15 16 17 19 20 21 22 23 24 25 27 28 30 32 33 35 36 41 43 45 46 48 49 54 56
b 6 1 3 6 8 10 11 13 14 15 16 17 19 22 23 24 25 27 28 30 33 35 41 45 46 52 54
b 7 3 4 8 10 11 14 15 16 17 19 23 24 30 33 35 41 45 52 54
b 8 4 11 15 16 17 19 23 24 33 34 52
b 9 1 3 5 6 8 10 11 13 14 15 16 17 19 20 21 22 23 24 25 27 28 30 32 33 35 36 41 43 46 48 49 54 56
b 10 1 5 6 10 14 15 16 17 19 20 21 22 23 24 25 27 30 32 35 37 41 43 46 48 54 56
b 11 1 5 6 14 15 19 21 22 23 24 25 35 37 40 41 43 48 54 56
b 12 5 6 15 21 22 24 40 41 43 54 55
b 13 1 3 6 8 10 11 13 14 15 16 17 19 20 21 22 23 24 25 27 28 30 32 33 35 36 41 43 46 48 49 50 54 56
b 14 6 8 10 11 13 14 15 17 19 20 22 23 24 25 27 28 30 32 35 36 43 44 48 49 50 54
b 15 8 10 11 12 14 17 19 20 22 24 25 27 28 43 44 48 49 50 54
b 16 7 8 11 12 17 25 27 43 44 48 54
b 17 1 3 6 8 9 10 11 13 14 15 16 17 19 20 21 22 23 24 25 27 28 30 32 33 35 36 41 43 46 48 49 54 56
b 18 3 6 9 10 11 13 14 15 16 17 19 20 21 22 25 28 30 33 35 36 38 43 46 48 54 56
b 19 3 6 9 10 15 17 19 20 21 25 28 33 35 36 38 46 48 53 54
b 20 3 15 19 20 25 36 38 39 46 53 54
b 21 1 3 6 8 10 11 13 14 15 16 17 19 20 21 22 23 24 25 27 28 30 32 33 35 36 41 43 46 48 49 51 54 56
b 22 8 10 11 13 14 15 16 20 21 22 23 24 25 27 28 32 33 35 36 41 42 46 48 51 54 56
b 23 8 10 13 16 20 21 22 23 24 25 26 27 33 35 36 42 51 54 56
b 24 13 18 20 24 26 27 33 35 51 54 56
1 2
1 5
1 9
1 13
1 17
1 21
2 3
3 4
5 6
6 7
7 8
9 10
10 11
11 12
13 14
14 15
15 16
17 18
18 19
19 20
21 22
22 23
23 24
